1 2
2 1
3 2
4 1
5 2
6 1
7 2
8 1
9 2
10 1
11 2
12 1
13 2
14 1
15 2
16 1
17 2
18 1
19 2
20 1
21 2
22 1
23 2
24 1
25 2
26 1
27 2
28 1
29 2
30 1
31 2
32 1
33 2
34 1
35 2
36 1
37 2
38 1
39 2
40 1
41 2
42 1
43 2
44 1
45 2
46 1
47 2
48 1
49 2
50 1
51 2
52 1
53 2
54 1
55 2
56 1
57 2
58 1
59 2
60 1
61 2
62 1
63 2
64 1
65 2
66 1
67 2
68 1
69 2
70 1
71 2
72 1
73 2
74 1
75 2
76 1
77 2
78 1
79 2
80 1
81 2
82 1
83 2
84 1
85 2
86 1
87 2
88 1
89 2
90 1
91 2
92 1
93 2
94 1
95 2
96 1
97 2
98 1
99 2
100 1
101 2
102 1
103 2
104 1
105 2
106 1
107 2
108 1
109 2
110 1
111 2
112 1
113 2
114 1
115 2
116 1
117 2
118 1
119 2
120 1
121 1
122 2
123 1
124 2
125 1
126 2
127 1
128 2
129 1
130 2
131 1
132 2
133 1
134 2
135 1
136 2
137 1
138 2
139 1
140 2
141 1
142 2
143 1
144 2
145 1
146 2
147 1
148 2
149 1
150 2
151 1
152 2
153 1
154 2
155 1
156 2
157 1
158 2
159 1
160 2
161 1
162 2
163 1
164 2
165 1
166 2
167 1
168 2
169 1
170 2
171 1
172 2
173 1
174 2
175 1
176 2
177 1
178 2
179 1
180 2
181 1
182 2
183 1
184 2
185 1
186 2
187 1
188 2
189 1
190 2
191 1
192 2
193 1
194 2
195 1
196 2
197 1
198 2
199 1
200 2
201 1
202 2
203 1
204 2
205 1
206 2
207 1
208 2
209 1
210 2
211 1
212 2
213 1
214 2
215 1
216 2
217 1
218 2
219 1
220 2
221 1
222 2
223 1
224 2
225 1
226 2
227 1
228 2
229 1
230 2
231 1
232 2
233 1
234 2
235 1
236 2
237 1
238 2
239 1
240 2
241 2
242 1
243 2
244 1
245 2
246 1
247 2
248 1
249 2
250 1
251 2
252 1
253 2
254 1
255 2
256 1
257 2
258 1
259 2
260 1
261 2
262 1
263 2
264 1
265 2
266 1
267 2
268 1
269 2
270 1
271 2
272 1
273 2
274 1
275 2
276 1
277 2
278 1
279 2
280 1
281 2
282 1
283 2
284 1
285 2
286 1
287 2
288 1
289 2
290 1
291 2
292 1
293 2
294 1
295 2
296 1
297 2
298 1
299 2
300 1
301 2
302 1
303 2
304 1
305 2
306 1
307 2
308 1
309 2
310 1
311 2
312 1
313 2
314 1
315 2
316 1
317 2
318 1
319 2
320 1
321 2
322 1
323 2
324 1
325 2
326 1
327 2
328 1
329 2
330 1
331 2
332 1
333 2
334 1
335 2
336 1
337 2
338 1
339 2
340 1
341 2
342 1
343 2
344 1
345 2
346 1
347 2
348 1
349 2
350 1
351 2
352 1
353 2
354 1
355 2
356 1
357 2
358 1
359 2
360 1
361 1
362 2
363 1
364 2
365 1
366 2
367 1
368 2
369 1
370 2
371 1
372 2
373 1
374 2
375 1
376 2
377 1
378 2
379 1
380 2
381 1
382 2
383 1
384 2
385 1
386 2
387 1
388 2
389 1
390 2
391 1
392 2
393 1
394 2
395 1
396 2
397 1
398 2
399 1
400 2
401 1
402 2
403 1
404 2
405 1
406 2
407 1
408 2
409 1
410 2
411 1
412 2
413 1
414 2
415 1
416 2
417 1
418 2
419 1
420 2
421 1
422 2
423 1
424 2
425 1
426 2
427 1
428 2
429 1
430 2
431 1
432 2
433 1
434 2
435 1
436 2
437 1
438 2
439 1
440 2
441 1
442 2
443 1
444 2
445 1
446 2
447 1
448 2
449 1
450 2
451 1
452 2
453 1
454 2
455 1
456 2
457 1
458 2
459 1
460 2
461 1
462 2
463 1
464 2
465 1
466 2
467 1
468 2
469 1
470 2
471 1
472 2
473 1
474 2
475 1
476 2
477 1
478 2
479 1
480 2
481 2
482 1
483 2
484 1
485 2
486 1
487 2
488 1
489 2
490 1
491 2
492 1
493 2
494 1
495 2
496 1
497 2
498 1
499 2
500 1
501 2
502 1
503 2
504 1
505 2
506 1
507 2
508 1
509 2
510 1
511 2
512 1
513 2
514 1
515 2
516 1
517 2
518 1
519 2
520 1
521 2
522 1
523 2
524 1
525 2
526 1
527 2
528 1
529 2
530 1
531 2
532 1
533 2
534 1
535 2
536 1
537 2
538 1
539 2
540 1
541 2
542 1
543 2
544 1
545 2
546 1
547 2
548 1
549 2
550 1
551 2
552 1
553 2
554 1
555 2
556 1
557 2
558 1
559 2
560 1
561 2
562 1
563 2
564 1
565 2
566 1
567 2
568 1
569 2
570 1
571 2
572 1
573 2
574 1
575 2
576 1
577 2
578 1
579 2
580 1
581 2
582 1
583 2
584 1
585 2
586 1
587 2
588 1
589 2
590 1
591 2
592 1
593 2
594 1
595 2
596 1
597 2
598 1
599 2
600 1
601 1
602 2
603 1
604 2
605 1
606 2
607 1
608 2
609 1
610 2
611 1
612 2
613 1
614 2
615 1
616 2
617 1
618 2
619 1
620 2
621 1
622 2
623 1
624 2
625 1
626 2
627 1
628 2
629 1
630 2
631 1
632 2
633 1
634 2
635 1
636 2
637 1
638 2
639 1
640 2
641 1
642 2
643 1
644 2
645 1
646 2
647 1
648 2
649 1
650 2
651 1
652 2
653 1
654 2
655 1
656 2
657 1
658 2
659 1
660 2
661 1
662 2
663 1
664 2
665 1
666 2
667 1
668 2
669 1
670 2
671 1
672 2
673 1
674 2
675 1
676 2
677 1
678 2
679 1
680 2
681 1
682 2
683 1
684 2
685 1
686 2
687 1
688 2
689 1
690 2
691 1
692 2
693 1
694 2
695 1
696 2
697 1
698 2
699 1
700 2
701 1
702 2
703 1
704 2
705 1
706 2
707 1
708 2
709 1
710 2
711 1
712 2
713 1
714 2
715 1
716 2
717 1
718 2
719 1
720 2
721 2
722 1
723 2
724 1
725 2
726 1
727 2
728 1
729 2
730 1
731 2
732 1
733 2
734 1
735 2
736 1
737 2
738 1
739 2
740 1
741 2
742 1
743 2
744 1
745 2
746 1
747 2
748 1
749 2
750 1
751 2
752 1
753 2
754 1
755 2
756 1
757 2
758 1
759 2
760 1
761 2
762 1
763 2
764 1
765 2
766 1
767 2
768 1
769 2
770 1
771 2
772 1
773 2
774 1
775 2
776 1
777 2
778 1
779 2
780 1
781 2
782 1
783 2
784 1
785 2
786 1
787 2
788 1
789 2
790 1
791 2
792 1
793 2
794 1
795 2
796 1
797 2
798 1
799 2
800 1
801 2
802 1
803 2
804 1
805 2
806 1
807 2
808 1
809 2
810 1
811 2
812 1
813 2
814 1
815 2
816 1
817 2
818 1
819 2
820 1
821 2
822 1
823 2
824 1
825 2
826 1
827 2
828 1
829 2
830 1
831 2
832 1
833 2
834 1
835 2
836 1
837 2
838 1
839 2
840 1
841 1
842 2
843 1
844 2
845 1
846 2
847 1
848 2
849 1
850 2
851 1
852 2
853 1
854 2
855 1
856 2
857 1
858 2
859 1
860 2
861 1
862 2
863 1
864 2
865 1
866 2
867 1
868 2
869 1
870 2
871 1
872 2
873 1
874 2
875 1
876 2
877 1
878 2
879 1
880 2
881 1
882 2
883 1
884 2
885 1
886 2
887 1
888 2
889 1
890 2
891 1
892 2
893 1
894 2
895 1
896 2
897 1
898 2
899 1
900 2
901 1
902 2
903 1
904 2
905 1
906 2
907 1
908 2
909 1
910 2
911 1
912 2
913 1
914 2
915 1
916 2
917 1
918 2
919 1
920 2
921 1
922 2
923 1
924 2
925 1
926 2
927 1
928 2
929 1
930 2
931 1
932 2
933 1
934 2
935 1
936 2
937 1
938 2
939 1
940 2
941 1
942 2
943 1
944 2
945 1
946 2
947 1
948 2
949 1
950 2
951 1
952 2
953 1
954 2
955 1
956 2
957 1
958 2
959 1
960 2
961 2
962 1
963 2
964 1
965 2
966 1
967 2
968 1
969 2
970 1
971 2
972 1
973 2
974 1
975 2
976 1
977 2
978 1
979 2
980 1
981 2
982 1
983 2
984 1
985 2
986 1
987 2
988 1
989 2
990 1
991 2
992 1
993 2
994 1
995 2
996 1
997 2
998 1
999 2
1000 1
1001 2
1002 1
1003 2
1004 1
1005 2
1006 1
1007 2
1008 1
1009 2
1010 1
1011 2
1012 1
1013 2
1014 1
1015 2
1016 1
1017 2
1018 1
1019 2
1020 1
1021 2
1022 1
1023 2
1024 1
1025 2
1026 1
1027 2
1028 1
1029 2
1030 1
1031 2
1032 1
1033 2
1034 1
1035 2
1036 1
1037 2
1038 1
1039 2
1040 1
1041 2
1042 1
1043 2
1044 1
1045 2
1046 1
1047 2
1048 1
1049 2
1050 1
1051 2
1052 1
1053 2
1054 1
1055 2
1056 1
1057 2
1058 1
1059 2
1060 1
1061 2
1062 1
1063 2
1064 1
1065 2
1066 1
1067 2
1068 1
1069 2
1070 1
1071 2
1072 1
1073 2
1074 1
1075 2
1076 1
1077 2
1078 1
1079 2
1080 1
1081 1
1082 2
1083 1
1084 2
1085 1
1086 2
1087 1
1088 2
1089 1
1090 2
1091 1
1092 2
1093 1
1094 2
1095 1
1096 2
1097 1
1098 2
1099 1
1100 2
1101 1
1102 2
1103 1
1104 2
1105 1
1106 2
1107 1
1108 2
1109 1
1110 2
1111 1
1112 2
1113 1
1114 2
1115 1
1116 2
1117 1
1118 2
1119 1
1120 2
1121 1
1122 2
1123 1
1124 2
1125 1
1126 2
1127 1
1128 2
1129 1
1130 2
1131 1
1132 2
1133 1
1134 2
1135 1
1136 2
1137 1
1138 2
1139 1
1140 2
1141 1
1142 2
1143 1
1144 2
1145 1
1146 2
1147 1
1148 2
1149 1
1150 2
1151 1
1152 2
1153 1
1154 2
1155 1
1156 2
1157 1
1158 2
1159 1
1160 2
1161 1
1162 2
1163 1
1164 2
1165 1
1166 2
1167 1
1168 2
1169 1
1170 2
1171 1
1172 2
1173 1
1174 2
1175 1
1176 2
1177 1
1178 2
1179 1
1180 2
1181 1
1182 2
1183 1
1184 2
1185 1
1186 2
1187 1
1188 2
1189 1
1190 2
1191 1
1192 2
1193 1
1194 2
1195 1
1196 2
1197 1
1198 2
1199 1
1200 2
1201 2
1202 1
1203 2
1204 1
1205 2
1206 1
1207 2
1208 1
1209 2
1210 1
1211 2
1212 1
1213 2
1214 1
1215 2
1216 1
1217 2
1218 1
1219 2
1220 1
1221 2
1222 1
1223 2
1224 1
1225 2
1226 1
1227 2
1228 1
1229 2
1230 1
1231 2
1232 1
1233 2
1234 1
1235 2
1236 1
1237 2
1238 1
1239 2
1240 1
1241 2
1242 1
1243 2
1244 1
1245 2
1246 1
1247 2
1248 1
1249 2
1250 1
1251 2
1252 1
1253 2
1254 1
1255 2
1256 1
1257 2
1258 1
1259 2
1260 1
1261 2
1262 1
1263 2
1264 1
1265 2
1266 1
1267 2
1268 1
1269 2
1270 1
1271 2
1272 1
1273 2
1274 1
1275 2
1276 1
1277 2
1278 1
1279 2
1280 1
1281 2
1282 1
1283 2
1284 1
1285 2
1286 1
1287 2
1288 1
1289 2
1290 1
1291 2
1292 1
1293 2
1294 1
1295 2
1296 1
1297 2
1298 1
1299 2
1300 1
1301 2
1302 1
1303 2
1304 1
1305 2
1306 1
1307 2
1308 1
1309 2
1310 1
1311 2
1312 1
1313 2
1314 1
1315 2
1316 1
1317 2
1318 1
1319 2
1320 1
1321 1
1322 2
1323 1
1324 2
1325 1
1326 2
1327 1
1328 2
1329 1
1330 2
1331 1
1332 2
1333 1
1334 2
1335 1
1336 2
1337 1
1338 2
1339 1
1340 2
1341 1
1342 2
1343 1
1344 2
1345 1
1346 2
1347 1
1348 2
1349 1
1350 2
1351 1
1352 2
1353 1
1354 2
1355 1
1356 2
1357 1
1358 2
1359 1
1360 2
1361 1
1362 2
1363 1
1364 2
1365 1
1366 2
1367 1
1368 2
1369 1
1370 2
1371 1
1372 2
1373 1
1374 2
1375 1
1376 2
1377 1
1378 2
1379 1
1380 2
1381 1
1382 2
1383 1
1384 2
1385 1
1386 2
1387 1
1388 2
1389 1
1390 2
1391 1
1392 2
1393 1
1394 2
1395 1
1396 2
1397 1
1398 2
1399 1
1400 2
1401 1
1402 2
1403 1
1404 2
1405 1
1406 2
1407 1
1408 2
1409 1
1410 2
1411 1
1412 2
1413 1
1414 2
1415 1
1416 2
1417 1
1418 2
1419 1
1420 2
1421 1
1422 2
1423 1
1424 2
1425 1
1426 2
1427 1
1428 2
1429 1
1430 2
1431 1
1432 2
1433 1
1434 2
1435 1
1436 2
1437 1
1438 2
1439 1
1440 2
1441 2
1442 1
1443 2
1444 1
1445 2
1446 1
1447 2
1448 1
1449 2
1450 1
1451 2
1452 1
1453 2
1454 1
1455 2
1456 1
1457 2
1458 1
1459 2
1460 1
1461 2
1462 1
1463 2
1464 1
1465 2
1466 1
1467 2
1468 1
1469 2
1470 1
1471 2
1472 1
1473 2
1474 1
1475 2
1476 1
1477 2
1478 1
1479 2
1480 1
1481 2
1482 1
1483 2
1484 1
1485 2
1486 1
1487 2
1488 1
1489 2
1490 1
1491 2
1492 1
1493 2
1494 1
1495 2
1496 1
1497 2
1498 1
1499 2
1500 1
1501 2
1502 1
1503 2
1504 1
1505 2
1506 1
1507 2
1508 1
1509 2
1510 1
1511 2
1512 1
1513 2
1514 1
1515 2
1516 1
1517 2
1518 1
1519 2
1520 1
1521 2
1522 1
1523 2
1524 1
1525 2
1526 1
1527 2
1528 1
1529 2
1530 1
1531 2
1532 1
1533 2
1534 1
1535 2
1536 1
1537 2
1538 1
1539 2
1540 1
1541 2
1542 1
1543 2
1544 1
1545 2
1546 1
1547 2
1548 1
1549 2
1550 1
1551 2
1552 1
1553 2
1554 1
1555 2
1556 1
1557 2
1558 1
1559 2
1560 1
1561 1
1562 2
1563 1
1564 2
1565 1
1566 2
1567 1
1568 2
1569 1
1570 2
1571 1
1572 2
1573 1
1574 2
1575 1
1576 2
1577 1
1578 2
1579 1
1580 2
1581 1
1582 2
1583 1
1584 2
1585 1
1586 2
1587 1
1588 2
1589 1
1590 2
1591 1
1592 2
1593 1
1594 2
1595 1
1596 2
1597 1
1598 2
1599 1
1600 2
1601 1
1602 2
1603 1
1604 2
1605 1
1606 2
1607 1
1608 2
1609 1
1610 2
1611 1
1612 2
1613 1
1614 2
1615 1
1616 2
1617 1
1618 2
1619 1
1620 2
1621 1
1622 2
1623 1
1624 2
1625 1
1626 2
1627 1
1628 2
1629 1
1630 2
1631 1
1632 2
1633 1
1634 2
1635 1
1636 2
1637 1
1638 2
1639 1
1640 2
1641 1
1642 2
1643 1
1644 2
1645 1
1646 2
1647 1
1648 2
1649 1
1650 2
1651 1
1652 2
1653 1
1654 2
1655 1
1656 2
1657 1
1658 2
1659 1
1660 2
1661 1
1662 2
1663 1
1664 2
1665 1
1666 2
1667 1
1668 2
1669 1
1670 2
1671 1
1672 2
1673 1
1674 2
1675 1
1676 2
1677 1
1678 2
1679 1
1680 2
1681 2
1682 1
1683 2
1684 1
1685 2
1686 1
1687 2
1688 1
1689 2
1690 1
1691 2
1692 1
1693 2
1694 1
1695 2
1696 1
1697 2
1698 1
1699 2
1700 1
1701 2
1702 1
1703 2
1704 1
1705 2
1706 1
1707 2
1708 1
1709 2
1710 1
1711 2
1712 1
1713 2
1714 1
1715 2
1716 1
1717 2
1718 1
1719 2
1720 1
1721 2
1722 1
1723 2
1724 1
1725 2
1726 1
1727 2
1728 1
1729 2
1730 1
1731 2
1732 1
1733 2
1734 1
1735 2
1736 1
1737 2
1738 1
1739 2
1740 1
1741 2
1742 1
1743 2
1744 1
1745 2
1746 1
1747 2
1748 1
1749 2
1750 1
1751 2
1752 1
1753 2
1754 1
1755 2
1756 1
1757 2
1758 1
1759 2
1760 1
1761 2
1762 1
1763 2
1764 1
1765 2
1766 1
1767 2
1768 1
1769 2
1770 1
1771 2
1772 1
1773 2
1774 1
1775 2
1776 1
1777 2
1778 1
1779 2
1780 1
1781 2
1782 1
1783 2
1784 1
1785 2
1786 1
1787 2
1788 1
1789 2
1790 1
1791 2
1792 1
1793 2
1794 1
1795 2
1796 1
1797 2
1798 1
1799 2
1800 1
1801 1
1802 2
1803 1
1804 2
1805 1
1806 2
1807 1
1808 2
1809 1
1810 2
1811 1
1812 2
1813 1
1814 2
1815 1
1816 2
1817 1
1818 2
1819 1
1820 2
1821 1
1822 2
1823 1
1824 2
1825 1
1826 2
1827 1
1828 2
1829 1
1830 2
1831 1
1832 2
1833 1
1834 2
1835 1
1836 2
1837 1
1838 2
1839 1
1840 2
1841 1
1842 2
1843 1
1844 2
1845 1
1846 2
1847 1
1848 2
1849 1
1850 2
1851 1
1852 2
1853 1
1854 2
1855 1
1856 2
1857 1
1858 2
1859 1
1860 2
1861 1
1862 2
1863 1
1864 2
1865 1
1866 2
1867 1
1868 2
1869 1
1870 2
1871 1
1872 2
1873 1
1874 2
1875 1
1876 2
1877 1
1878 2
1879 1
1880 2
1881 1
1882 2
1883 1
1884 2
1885 1
1886 2
1887 1
1888 2
1889 1
1890 2
1891 1
1892 2
1893 1
1894 2
1895 1
1896 2
1897 1
1898 2
1899 1
1900 2
1901 1
1902 2
1903 1
1904 2
1905 1
1906 2
1907 1
1908 2
1909 1
1910 2
1911 1
1912 2
1913 1
1914 2
1915 1
1916 2
1917 1
1918 2
1919 1
1920 2
1921 2
1922 1
1923 2
1924 1
1925 2
1926 1
1927 2
1928 1
1929 2
1930 1
1931 2
1932 1
1933 2
1934 1
1935 2
1936 1
1937 2
1938 1
1939 2
1940 1
1941 2
1942 1
1943 2
1944 1
1945 2
1946 1
1947 2
1948 1
1949 2
1950 1
1951 2
1952 1
1953 2
1954 1
1955 2
1956 1
1957 2
1958 1
1959 2
1960 1
1961 2
1962 1
1963 2
1964 1
1965 2
1966 1
1967 2
1968 1
1969 2
1970 1
1971 2
1972 1
1973 2
1974 1
1975 2
1976 1
1977 2
1978 1
1979 2
1980 1
1981 2
1982 1
1983 2
1984 1
1985 2
1986 1
1987 2
1988 1
1989 2
1990 1
1991 2
1992 1
1993 2
1994 1
1995 2
1996 1
1997 2
1998 1
1999 2
2000 1
2001 2
2002 1
2003 2
2004 1
2005 2
2006 1
2007 2
2008 1
2009 2
2010 1
2011 2
2012 1
2013 2
2014 1
2015 2
2016 1
2017 2
2018 1
2019 2
2020 1
2021 2
2022 1
2023 2
2024 1
2025 2
2026 1
2027 2
2028 1
2029 2
2030 1
2031 2
2032 1
2033 2
2034 1
2035 2
2036 1
2037 2
2038 1
2039 2
2040 1
2041 1
2042 2
2043 1
2044 2
2045 1
2046 2
2047 1
2048 2
2049 1
2050 2
2051 1
2052 2
2053 1
2054 2
2055 1
2056 2
2057 1
2058 2
2059 1
2060 2
2061 1
2062 2
2063 1
2064 2
2065 1
2066 2
2067 1
2068 2
2069 1
2070 2
2071 1
2072 2
2073 1
2074 2
2075 1
2076 2
2077 1
2078 2
2079 1
2080 2
2081 1
2082 2
2083 1
2084 2
2085 1
2086 2
2087 1
2088 2
2089 1
2090 2
2091 1
2092 2
2093 1
2094 2
2095 1
2096 2
2097 1
2098 2
2099 1
2100 2
2101 1
2102 2
2103 1
2104 2
2105 1
2106 2
2107 1
2108 2
2109 1
2110 2
2111 1
2112 2
2113 1
2114 2
2115 1
2116 2
2117 1
2118 2
2119 1
2120 2
2121 1
2122 2
2123 1
2124 2
2125 1
2126 2
2127 1
2128 2
2129 1
2130 2
2131 1
2132 2
2133 1
2134 2
2135 1
2136 2
2137 1
2138 2
2139 1
2140 2
2141 1
2142 2
2143 1
2144 2
2145 1
2146 2
2147 1
2148 2
2149 1
2150 2
2151 1
2152 2
2153 1
2154 2
2155 1
2156 2
2157 1
2158 2
2159 1
2160 2
2161 2
2162 1
2163 2
2164 1
2165 2
2166 1
2167 2
2168 1
2169 2
2170 1
2171 2
2172 1
2173 2
2174 1
2175 2
2176 1
2177 2
2178 1
2179 2
2180 1
2181 2
2182 1
2183 2
2184 1
2185 2
2186 1
2187 2
2188 1
2189 2
2190 1
2191 2
2192 1
2193 2
2194 1
2195 2
2196 1
2197 2
2198 1
2199 2
2200 1
2201 2
2202 1
2203 2
2204 1
2205 2
2206 1
2207 2
2208 1
2209 2
2210 1
2211 2
2212 1
2213 2
2214 1
2215 2
2216 1
2217 2
2218 1
2219 2
2220 1
2221 2
2222 1
2223 2
2224 1
2225 2
2226 1
2227 2
2228 1
2229 2
2230 1
2231 2
2232 1
2233 2
2234 1
2235 2
2236 1
2237 2
2238 1
2239 2
2240 1
2241 2
2242 1
2243 2
2244 1
2245 2
2246 1
2247 2
2248 1
2249 2
2250 1
2251 2
2252 1
2253 2
2254 1
2255 2
2256 1
2257 2
2258 1
2259 2
2260 1
2261 2
2262 1
2263 2
2264 1
2265 2
2266 1
2267 2
2268 1
2269 2
2270 1
2271 2
2272 1
2273 2
2274 1
2275 2
2276 1
2277 2
2278 1
2279 2
2280 1
2281 1
2282 2
2283 1
2284 2
2285 1
2286 2
2287 1
2288 2
2289 1
2290 2
2291 1
2292 2
2293 1
2294 2
2295 1
2296 2
2297 1
2298 2
2299 1
2300 2
2301 1
2302 2
2303 1
2304 2
2305 1
2306 2
2307 1
2308 2
2309 1
2310 2
2311 1
2312 2
2313 1
2314 2
2315 1
2316 2
2317 1
2318 2
2319 1
2320 2
2321 1
2322 2
2323 1
2324 2
2325 1
2326 2
2327 1
2328 2
2329 1
2330 2
2331 1
2332 2
2333 1
2334 2
2335 1
2336 2
2337 1
2338 2
2339 1
2340 2
2341 1
2342 2
2343 1
2344 2
2345 1
2346 2
2347 1
2348 2
2349 1
2350 2
2351 1
2352 2
2353 1
2354 2
2355 1
2356 2
2357 1
2358 2
2359 1
2360 2
2361 1
2362 2
2363 1
2364 2
2365 1
2366 2
2367 1
2368 2
2369 1
2370 2
2371 1
2372 2
2373 1
2374 2
2375 1
2376 2
2377 1
2378 2
2379 1
2380 2
2381 1
2382 2
2383 1
2384 2
2385 1
2386 2
2387 1
2388 2
2389 1
2390 2
2391 1
2392 2
2393 1
2394 2
2395 1
2396 2
2397 1
2398 2
2399 1
2400 2
2401 2
2402 1
2403 2
2404 1
2405 2
2406 1
2407 2
2408 1
2409 2
2410 1
2411 2
2412 1
2413 2
2414 1
2415 2
2416 1
2417 2
2418 1
2419 2
2420 1
2421 2
2422 1
2423 2
2424 1
2425 2
2426 1
2427 2
2428 1
2429 2
2430 1
2431 2
2432 1
2433 2
2434 1
2435 2
2436 1
2437 2
2438 1
2439 2
2440 1
2441 2
2442 1
2443 2
2444 1
2445 2
2446 1
2447 2
2448 1
2449 2
2450 1
2451 2
2452 1
2453 2
2454 1
2455 2
2456 1
2457 2
2458 1
2459 2
2460 1
2461 2
2462 1
2463 2
2464 1
2465 2
2466 1
2467 2
2468 1
2469 2
2470 1
2471 2
2472 1
2473 2
2474 1
2475 2
2476 1
2477 2
2478 1
2479 2
2480 1
2481 2
2482 1
2483 2
2484 1
2485 2
2486 1
2487 2
2488 1
2489 2
2490 1
2491 2
2492 1
2493 2
2494 1
2495 2
2496 1
2497 2
2498 1
2499 2
2500 1
2501 2
2502 1
2503 2
2504 1
2505 2
2506 1
2507 2
2508 1
2509 2
2510 1
2511 2
2512 1
2513 2
2514 1
2515 2
2516 1
2517 2
2518 1
2519 2
2520 1
2521 1
2522 2
2523 1
2524 2
2525 1
2526 2
2527 1
2528 2
2529 1
2530 2
2531 1
2532 2
2533 1
2534 2
2535 1
2536 2
2537 1
2538 2
2539 1
2540 2
2541 1
2542 2
2543 1
2544 2
2545 1
2546 2
2547 1
2548 2
2549 1
2550 2
2551 1
2552 2
2553 1
2554 2
2555 1
2556 2
2557 1
2558 2
2559 1
2560 2
2561 1
2562 2
2563 1
2564 2
2565 1
2566 2
2567 1
2568 2
2569 1
2570 2
2571 1
2572 2
2573 1
2574 2
2575 1
2576 2
2577 1
2578 2
2579 1
2580 2
2581 1
2582 2
2583 1
2584 2
2585 1
2586 2
2587 1
2588 2
2589 1
2590 2
2591 1
2592 2
2593 1
2594 2
2595 1
2596 2
2597 1
2598 2
2599 1
2600 2
2601 1
2602 2
2603 1
2604 2
2605 1
2606 2
2607 1
2608 2
2609 1
2610 2
2611 1
2612 2
2613 1
2614 2
2615 1
2616 2
2617 1
2618 2
2619 1
2620 2
2621 1
2622 2
2623 1
2624 2
2625 1
2626 2
2627 1
2628 2
2629 1
2630 2
2631 1
2632 2
2633 1
2634 2
2635 1
2636 2
2637 1
2638 2
2639 1
2640 2
2641 2
2642 1
2643 2
2644 1
2645 2
2646 1
2647 2
2648 1
2649 2
2650 1
2651 2
2652 1
2653 2
2654 1
2655 2
2656 1
2657 2
2658 1
2659 2
2660 1
2661 2
2662 1
2663 2
2664 1
2665 2
2666 1
2667 2
2668 1
2669 2
2670 1
2671 2
2672 1
2673 2
2674 1
2675 2
2676 1
2677 2
2678 1
2679 2
2680 1
2681 2
2682 1
2683 2
2684 1
2685 2
2686 1
2687 2
2688 1
2689 2
2690 1
2691 2
2692 1
2693 2
2694 1
2695 2
2696 1
2697 2
2698 1
2699 2
2700 1
2701 2
2702 1
2703 2
2704 1
2705 2
2706 1
2707 2
2708 1
2709 2
2710 1
2711 2
2712 1
2713 2
2714 1
2715 2
2716 1
2717 2
2718 1
2719 2
2720 1
2721 2
2722 1
2723 2
2724 1
2725 2
2726 1
2727 2
2728 1
2729 2
2730 1
2731 2
2732 1
2733 2
2734 1
2735 2
2736 1
2737 2
2738 1
2739 2
2740 1
2741 2
2742 1
2743 2
2744 1
2745 2
2746 1
2747 2
2748 1
2749 2
2750 1
2751 2
2752 1
2753 2
2754 1
2755 2
2756 1
2757 2
2758 1
2759 2
2760 1
2761 1
2762 2
2763 1
2764 2
2765 1
2766 2
2767 1
2768 2
2769 1
2770 2
2771 1
2772 2
2773 1
2774 2
2775 1
2776 2
2777 1
2778 2
2779 1
2780 2
2781 1
2782 2
2783 1
2784 2
2785 1
2786 2
2787 1
2788 2
2789 1
2790 2
2791 1
2792 2
2793 1
2794 2
2795 1
2796 2
2797 1
2798 2
2799 1
2800 2
2801 1
2802 2
2803 1
2804 2
2805 1
2806 2
2807 1
2808 2
2809 1
2810 2
2811 1
2812 2
2813 1
2814 2
2815 1
2816 2
2817 1
2818 2
2819 1
2820 2
2821 1
2822 2
2823 1
2824 2
2825 1
2826 2
2827 1
2828 2
2829 1
2830 2
2831 1
2832 2
2833 1
2834 2
2835 1
2836 2
2837 1
2838 2
2839 1
2840 2
2841 1
2842 2
2843 1
2844 2
2845 1
2846 2
2847 1
2848 2
2849 1
2850 2
2851 1
2852 2
2853 1
2854 2
2855 1
2856 2
2857 1
2858 2
2859 1
2860 2
2861 1
2862 2
2863 1
2864 2
2865 1
2866 2
2867 1
2868 2
2869 1
2870 2
2871 1
2872 2
2873 1
2874 2
2875 1
2876 2
2877 1
2878 2
2879 1
2880 2
2881 1
2882 2
2883 1
2884 2
2885 1
2886 2
2887 1
2888 2
2889 1
2890 2
2891 1
2892 2
2893 1
2894 2
2895 1
2896 2
2897 1
2898 2
2899 1
2900 2
2901 1
2902 2
2903 1
2904 2
2905 1
2906 2
2907 1
2908 2
2909 1
2910 2
2911 1
2912 2
2913 1
2914 2
2915 1
2916 2
2917 1
2918 2
2919 1
2920 2
2921 1
2922 2
2923 1
2924 2
2925 1
2926 2
2927 1
2928 2
2929 1
2930 2
2931 1
2932 2
2933 1
2934 2
2935 1
2936 2
2937 1
2938 2
2939 1
2940 2
2941 1
2942 2
2943 1
2944 2
2945 1
2946 2
2947 1
2948 2
2949 1
2950 2
2951 1
2952 2
2953 1
2954 2
2955 1
2956 2
2957 1
2958 2
2959 1
2960 2
2961 1
2962 2
2963 1
2964 2
2965 1
2966 2
2967 1
2968 2
2969 1
2970 2
2971 1
2972 2
2973 1
2974 2
2975 1
2976 2
2977 1
2978 2
2979 1
2980 2
2981 1
2982 2
2983 1
2984 2
2985 1
2986 2
2987 1
2988 2
2989 1
2990 2
2991 1
2992 2
2993 1
2994 2
2995 1
2996 2
2997 1
2998 2
2999 1
3000 2
